29
1 0 1
2 0 2
2 1 1
3 0 7
3 1 3
3 2 1
4 0 5
4 1 1
4 2 4
4 3 4
5 0 1
5 1 2
5 2 1
5 3 2
5 4 1
6 0 6
6 1 1
6 2 7
6 3 2
6 4 7
6 5 4
7 0 5
7 1 3
7 2 7
7 3 4
7 4 7
7 5 4
7 6 3
8 0 4
8 1 1
8 2 5
8 3 4
8 4 4
8 5 4
8 6 6
8 7 2
9 0 1
9 1 7
9 2 7
9 3 3
9 4 2
9 5 4
9 6 2
9 7 5
9 8 5
10 0 1
10 1 6
10 2 6
10 3 5
10 4 5
10 5 6
10 6 3
10 7 5
10 8 7
10 9 3
11 0 2
11 1 6
11 2 1
11 3 5
11 4 6
11 5 4
11 6 4
11 7 1
11 8 1
11 9 5
11 10 2
12 0 6
12 1 3
12 2 4
12 3 2
12 4 1
12 5 1
12 6 7
12 7 6
12 8 7
12 9 7
12 10 7
12 11 4
13 0 5
13 1 2
13 2 1
13 3 1
13 4 1
13 5 4
13 6 2
13 7 4
13 8 6
13 9 1
13 10 6
13 11 1
13 12 2
14 0 4
14 1 7
14 2 7
14 3 5
14 4 5
14 5 5
14 6 3
14 7 4
14 8 3
14 9 6
14 10 4
14 11 7
14 12 3
14 13 2
15 0 7
15 1 6
15 2 3
15 3 4
15 4 6
15 5 7
15 6 6
15 7 7
15 8 6
15 9 5
15 10 1
15 11 1
15 12 4
15 13 2
15 14 6
16 0 2
16 1 2
16 2 1
16 3 2
16 4 2
16 5 3
16 6 7
16 7 2
16 8 6
16 9 7
16 10 3
16 11 2
16 12 4
16 13 7
16 14 2
16 15 5
17 0 3
17 1 6
17 2 2
17 3 3
17 4 2
17 5 4
17 6 6
17 7 5
17 8 4
17 9 3
17 10 4
17 11 2
17 12 3
17 13 2
17 14 4
17 15 7
17 16 7
18 0 7
18 1 5
18 2 1
18 3 4
18 4 7
18 5 3
18 6 1
18 7 1
18 8 5
18 9 1
18 10 2
18 11 5
18 12 6
18 13 7
18 14 4
18 15 3
18 16 7
18 17 4
19 0 2
19 1 5
19 2 6
19 3 3
19 4 2
19 5 3
19 6 6
19 7 6
19 8 5
19 9 2
19 10 1
19 11 5
19 12 5
19 13 3
19 14 3
19 15 6
19 16 5
19 17 2
19 18 3
20 0 7
20 1 4
20 2 2
20 3 5
20 4 1
20 5 3
20 6 3
20 7 4
20 8 6
20 9 2
20 10 2
20 11 7
20 12 5
20 13 5
20 14 7
20 15 5
20 16 3
20 17 5
20 18 6
20 19 5
21 0 1
21 1 3
21 2 4
21 3 4
21 4 6
21 5 2
21 6 7
21 7 3
21 8 3
21 9 2
21 10 2
21 11 2
21 12 6
21 13 7
21 14 4
21 15 4
21 16 4
21 17 7
21 18 4
21 19 6
21 20 4
22 0 6
22 1 1
22 2 3
22 3 3
22 4 5
22 5 7
22 6 6
22 7 2
22 8 2
22 9 7
22 10 4
22 11 1
22 12 6
22 13 2
22 14 2
22 15 7
22 16 5
22 17 6
22 18 6
22 19 2
22 20 6
22 21 4
23 0 7
23 1 2
23 2 7
23 3 3
23 4 3
23 5 5
23 6 1
23 7 3
23 8 4
23 9 5
23 10 1
23 11 7
23 12 4
23 13 5
23 14 5
23 15 4
23 16 6
23 17 1
23 18 4
23 19 5
23 20 7
23 21 4
23 22 1
24 0 1
24 1 6
24 2 3
24 3 2
24 4 4
24 5 1
24 6 7
24 7 4
24 8 3
24 9 5
24 10 5
24 11 3
24 12 2
24 13 1
24 14 3
24 15 7
24 16 1
24 17 3
24 18 5
24 19 2
24 20 2
24 21 3
24 22 7
24 23 4
25 0 5
25 1 2
25 2 7
25 3 5
25 4 5
25 5 3
25 6 1
25 7 6
25 8 6
25 9 5
25 10 1
25 11 6
25 12 4
25 13 4
25 14 4
25 15 4
25 16 6
25 17 6
25 18 6
25 19 3
25 20 3
25 21 3
25 22 1
25 23 6
25 24 5
26 0 2
26 1 3
26 2 2
26 3 5
26 4 1
26 5 1
26 6 1
26 7 5
26 8 4
26 9 7
26 10 3
26 11 2
26 12 4
26 13 6
26 14 2
26 15 5
26 16 2
26 17 6
26 18 2
26 19 1
26 20 6
26 21 1
26 22 1
26 23 1
26 24 1
26 25 3
27 0 6
27 1 4
27 2 4
27 3 3
27 4 5
27 5 2
27 6 7
27 7 6
27 8 5
27 9 3
27 10 6
27 11 3
27 12 6
27 13 2
27 14 7
27 15 1
27 16 2
27 17 3
27 18 4
27 19 4
27 20 1
27 21 6
27 22 1
27 23 6
27 24 7
27 25 2
27 26 2
28 0 1
28 1 2
28 2 4
28 3 7
28 4 5
28 5 6
28 6 5
28 7 2
28 8 7
28 9 6
28 10 5
28 11 1
28 12 3
28 13 3
28 14 2
28 15 6
28 16 7
28 17 7
28 18 4
28 19 4
28 20 5
28 21 4
28 22 5
28 23 4
28 24 6
28 25 6
28 26 6
28 27 5
